750
50 50
1 35 299
2 35 497
3 35 589
4 35 414
5 35 915
6 35 475
7 35 13
8 35 494
9 35 206
10 35 122
11 35 521
12 35 227
13 35 243
14 35 88
15 35 654
16 35 68
17 35 740
18 35 286
19 35 739
20 35 789
21 35 693
22 35 312
23 35 8
24 35 216
25 34 120
26 34 339
27 34 738
28 34 991
29 34 9
30 34 652
31 34 290
32 34 379
33 34 549
34 34 102
35 34 674
36 34 664
37 34 704
38 34 806
39 34 394
40 34 590
41 34 395
42 34 270
43 34 207
44 33 103
45 33 990
46 33 390
47 33 561
48 33 158
49 33 598
50 33 913
51 33 791
52 33 746
53 33 663
54 33 361
55 33 386
56 33 746
57 33 281
58 33 555
59 33 524
60 33 823
61 33 901
62 33 420
63 33 912
64 33 101
65 33 612
66 33 333
67 33 458
68 33 75
69 33 427
70 33 195
71 33 187
72 33 848
73 33 404
74 33 881
75 33 680
76 33 543
77 32 386
78 32 151
79 32 906
80 32 549
81 32 974
82 32 748
83 32 329
84 32 535
85 32 606
86 32 703
87 32 44
88 32 415
89 32 121
90 32 422
91 32 598
92 32 478
93 32 339
94 32 930
95 32 687
96 32 588
97 32 780
98 32 840
99 32 485
100 32 353
101 32 484
102 32 1000
103 32 209
104 32 136
105 32 846
106 31 634
107 31 207
108 31 823
109 31 224
110 31 855
111 31 334
112 31 947
113 31 560
114 31 498
115 31 838
116 31 187
117 31 156
118 31 548
119 31 354
120 31 596
121 31 881
122 31 725
123 31 121
124 31 956
125 31 115
126 31 156
127 31 763
128 31 665
129 31 464
130 31 165
131 31 396
132 31 564
133 31 745
134 31 143
135 31 633
136 31 843
137 30 951
138 30 446
139 30 564
140 30 790
141 30 436
142 30 685
143 30 163
144 30 554
145 30 683
146 30 347
147 30 856
148 30 904
149 30 801
150 30 274
151 30 644
152 30 265
153 30 736
154 30 51
155 30 779
156 30 947
157 30 888
158 30 463
159 30 408
160 30 248
161 30 778
162 30 587
163 29 158
164 29 831
165 29 650
166 29 682
167 29 417
168 29 18
169 29 274
170 29 716
171 29 956
172 29 13
173 29 571
174 29 33
175 29 431
176 29 591
177 29 784
178 29 19
179 29 971
180 29 787
181 29 243
182 29 305
183 29 499
184 29 933
185 29 58
186 29 88
187 29 473
188 29 570
189 29 987
190 29 563
191 29 638
192 29 313
193 29 790
194 28 437
195 28 150
196 28 733
197 28 282
198 28 705
199 28 154
200 28 798
201 28 709
202 28 265
203 28 554
204 28 952
205 28 313
206 28 573
207 28 447
208 28 696
209 28 194
210 28 589
211 28 105
212 28 758
213 28 367
214 28 399
215 28 129
216 28 768
217 28 269
218 28 985
219 28 211
220 27 164
221 27 330
222 27 289
223 27 121
224 27 776
225 27 816
226 27 416
227 27 946
228 27 657
229 27 70
230 27 619
231 27 390
232 27 917
233 27 138
234 27 41
235 27 159
236 27 972
237 27 686
238 27 321
239 27 518
240 27 333
241 27 806
242 27 908
243 27 588
244 27 659
245 27 311
246 27 36
247 27 725
248 27 618
249 27 503
250 26 512
251 26 275
252 26 5
253 26 743
254 26 342
255 26 375
256 26 80
257 26 443
258 26 664
259 26 769
260 26 20
261 26 339
262 26 554
263 26 304
264 26 345
265 26 405
266 26 425
267 26 261
268 26 942
269 26 889
270 26 227
271 26 970
272 26 687
273 26 110
274 26 943
275 26 938
276 26 87
277 26 175
278 25 134
279 25 848
280 25 969
281 25 280
282 25 375
283 25 917
284 25 382
285 25 895
286 25 9
287 25 493
288 25 332
289 25 487
290 25 969
291 25 60
292 25 216
293 25 963
294 25 514
295 25 672
296 25 591
297 24 830
298 24 583
299 24 59
300 24 764
301 24 602
302 24 728
303 24 606
304 24 265
305 24 17
306 24 720
307 24 279
308 24 996
309 24 610
310 24 966
311 24 18
312 24 99
313 24 500
314 24 830
315 24 149
316 24 326
317 24 341
318 24 519
319 24 89
320 24 527
321 24 259
322 24 818
323 24 774
324 24 655
325 23 352
326 23 804
327 23 812
328 23 358
329 23 194
330 23 545
331 23 904
332 23 126
333 23 777
334 23 635
335 23 978
336 23 265
337 23 473
338 23 103
339 23 435
340 23 518
341 23 989
342 23 343
343 23 1
344 23 50
345 23 922
346 23 204
347 23 178
348 23 581
349 23 498
350 23 819
351 22 539
352 22 594
353 22 827
354 22 890
355 22 580
356 22 856
357 22 911
358 22 104
359 22 271
360 22 97
361 22 725
362 22 354
363 22 223
364 22 881
365 22 582
366 22 353
367 22 830
368 22 702
369 22 616
370 22 558
371 22 46
372 22 521
373 22 818
374 22 524
375 22 987
376 22 974
377 22 682
378 22 497
379 22 316
380 22 776
381 21 150
382 21 127
383 21 668
384 21 371
385 21 587
386 21 537
387 21 891
388 21 135
389 21 380
390 21 605
391 21 104
392 21 542
393 21 358
394 21 590
395 21 21
396 21 912
397 21 308
398 21 422
399 21 172
400 21 229
401 21 404
402 21 978
403 21 785
404 21 806
405 21 758
406 20 303
407 20 331
408 20 363
409 20 594
410 20 561
411 20 817
412 20 858
413 20 367
414 20 518
415 20 691
416 20 999
417 20 433
418 20 392
419 20 902
420 20 649
421 20 917
422 20 660
423 20 630
424 20 939
425 20 171
426 20 403
427 20 614
428 20 938
429 20 494
430 20 706
431 20 999
432 20 244
433 20 354
434 20 228
435 20 105
436 20 868
437 20 781
438 20 7
439 20 383
440 19 538
441 19 714
442 19 587
443 19 763
444 19 98
445 19 175
446 19 771
447 19 660
448 19 937
449 19 37
450 19 728
451 19 258
452 19 611
453 19 665
454 19 565
455 19 148
456 19 524
457 19 100
458 19 699
459 19 951
460 19 709
461 19 448
462 19 860
463 19 249
464 19 370
465 19 485
466 19 547
467 19 300
468 19 793
469 19 96
470 19 280
471 19 557
472 19 492
473 18 942
474 18 873
475 18 773
476 18 519
477 18 150
478 18 736
479 18 823
480 18 577
481 18 519
482 18 696
483 18 166
484 18 237
485 18 416
486 18 640
487 18 627
488 18 420
489 18 478
490 18 297
491 18 115
492 18 865
493 18 824
494 18 18
495 18 523
496 18 604
497 17 467
498 17 220
499 17 792
500 17 12
501 17 686
502 17 112
503 17 4
504 17 117
505 17 473
506 17 152
507 17 669
508 17 185
509 17 895
510 17 828
511 17 957
512 17 108
513 17 238
514 17 810
515 17 580
516 17 429
517 17 73
518 17 22
519 17 571
520 17 366
521 17 773
522 17 204
523 17 688
524 17 540
525 17 882
526 17 658
527 17 540
528 17 234
529 16 919
530 16 394
531 16 37
532 16 985
533 16 549
534 16 627
535 16 75
536 16 235
537 16 15
538 16 729
539 16 177
540 16 914
541 16 188
542 16 808
543 16 664
544 16 277
545 16 748
546 16 129
547 16 430
548 16 833
549 16 166
550 16 320
551 16 349
552 16 63
553 16 783
554 16 186
555 16 958
556 16 247
557 16 187
558 16 712
559 16 359
560 16 180
561 15 493
562 15 322
563 15 326
564 15 37
565 15 469
566 15 144
567 15 948
568 15 50
569 15 680
570 15 618
571 15 99
572 15 756
573 15 997
574 15 152
575 15 853
576 15 652
577 15 649
578 15 522
579 15 391
580 15 124
581 15 572
582 15 376
583 15 781
584 15 65
585 15 613
586 15 641
587 14 77
588 14 750
589 14 706
590 14 317
591 14 254
592 14 416
593 14 741
594 14 339
595 14 11
596 14 634
597 14 286
598 14 850
599 14 368
600 14 648
601 14 249
602 14 771
603 14 578
604 14 50
605 14 821
606 14 270
607 14 662
608 14 716
609 14 380
610 14 556
611 14 40
612 13 167
613 13 732
614 13 149
615 13 340
616 13 791
617 13 696
618 13 474
619 13 422
620 13 989
621 13 748
622 13 668
623 13 889
624 13 254
625 13 875
626 13 939
627 13 921
628 13 978
629 13 937
630 13 275
631 13 874
632 13 661
633 13 257
634 13 207
635 13 880
636 13 372
637 13 968
638 13 155
639 13 925
640 13 240
641 13 592
642 13 811
643 13 489
644 13 322
645 13 525
646 13 822
647 13 610
648 13 790
649 12 860
650 12 249
651 12 40
652 12 99
653 12 963
654 12 322
655 12 800
656 12 961
657 12 944
658 12 294
659 12 669
660 12 674
661 12 427
662 12 853
663 12 23
664 12 575
665 12 579
666 12 88
667 12 782
668 12 683
669 12 235
670 12 776
671 12 143
672 12 65
673 12 829
674 12 630
675 12 317
676 12 703
677 12 66
678 12 457
679 12 652
680 12 953
681 12 258
682 12 343
683 12 837
684 12 449
685 12 954
686 12 173
687 12 795
688 12 847
689 11 901
690 11 373
691 11 161
692 11 128
693 11 963
694 11 117
695 11 688
696 11 40
697 11 576
698 11 164
699 11 902
700 11 123
701 11 757
702 11 204
703 11 144
704 11 776
705 11 5
706 11 136
707 11 716
708 11 982
709 11 318
710 11 679
711 11 365
712 11 410
713 11 648
714 11 408
715 11 164
716 11 26
717 11 575
718 11 287
719 11 507
720 11 109
721 11 176
722 11 134
723 10 913
724 10 857
725 10 807
726 10 636
727 10 566
728 10 130
729 10 575
730 10 558
731 10 930
732 10 77
733 10 356
734 10 187
735 10 462
736 10 95
737 10 431
738 10 643
739 10 399
740 10 734
741 10 622
742 10 956
743 10 587
744 10 577
745 10 196
746 10 101
747 10 248
748 10 130
749 10 271
750 10 581
